DIMENSION: 105
4
13
14
34
35
38
39
17
16
18
25
26
37
36
42
41
43
46
52
53
58
44
47
51
54
57
63
62
64
69
70
74
75
81
73
76
80
72
77
79
84
86
89
90
66
61
60
65
88
87
94
95
100
99
98
93
102
101
97
96
92
91
85
83
82
78
71
68
67
105
59
56
55
50
48
45
49
40
104
33
27
24
19
12
28
23
20
32
31
30
29
22
21
103
15
11
10
7
6
2
1
3
8
9
5
